c Result of efficient AIG-to-CNF conversion using package CNF
p cnf 392 1520
-2 3 185 0
-2 -3 -185 0
2 -3 185 0
2 3 -185 0
-3 -4 -129 0
-3 4 129 0
3 4 -129 0
3 -4 129 0
-4 5 96 0
-4 5 -56 -69 0
-4 56 69 96 0
-4 5 56 69 0
-4 -56 -69 96 0
4 -5 -96 0
4 56 -69 -96 0
4 -5 56 -69 0
4 -56 69 -96 0
4 -5 -56 69 0
-5 6 39 0
-5 6 55 0
5 -6 0
5 -39 -55 0
6 -7 -23 0
-6 7 0
-6 23 0
-7 -8 -15 0
-7 8 15 0
7 8 -15 0
7 -8 15 0
-8 11 13 0
-8 9 13 0
-8 9 11 0
8 -9 -13 0
8 -9 -11 0
8 -11 -13 0
9 -375 -10 0
-9 375 0
-9 10 0
10 371 -373 0
10 -371 373 0
-10 -371 -373 0
-10 371 373 0
-11 373 12 0
-11 -373 -12 0
11 -373 12 0
11 373 -12 0
-12 368 373 0
-12 -368 370 0
-12 367 368 0
12 -368 -370 0
12 -367 368 -373 0
13 -373 375 14 0
-13 373 0
-13 -14 0
-13 -375 0
14 -367 -368 0
-14 367 0
-14 368 0
15 16 -17 0
15 -16 17 0
-15 -16 -17 0
-15 16 17 0
16 -365 9 0
-16 365 0
-16 -9 0
17 -18 20 0
17 18 -20 0
-17 18 20 0
-17 -18 -20 0
-18 373 19 0
-18 -373 -19 0
18 -373 19 0
18 373 -19 0
-19 368 373 0
-19 363 -368 0
-19 368 370 0
19 -363 -368 0
19 368 -370 -373 0
-20 365 21 0
-20 -365 -21 0
20 -365 21 0
20 365 -21 0
-21 10 22 0
-21 367 375 0
-21 367 22 0
-21 375 10 0
21 -367 -10 0
21 -375 -22 0
-22 -371 373 0
-22 -365 -373 0
-22 365 371 0
22 365 -371 -373 0
22 -365 371 373 0
-23 -24 -31 0
-23 24 31 0
23 24 -31 0
23 -24 31 0
-24 27 29 0
-24 25 29 0
-24 25 27 0
24 -25 -29 0
24 -25 -27 0
24 -27 -29 0
25 -362 -26 0
-25 362 0
-25 26 0
26 364 -372 0
26 -364 372 0
-26 -364 -372 0
-26 364 372 0
-27 372 28 0
-27 -372 -28 0
27 -372 28 0
27 372 -28 0
-28 361 372 0
-28 -361 366 0
-28 361 377 0
28 -361 -366 0
28 361 -372 -377 0
29 362 -372 30 0
-29 -362 0
-29 372 0
-29 -30 0
30 -361 -377 0
-30 361 0
-30 377 0
31 32 -33 0
31 -32 33 0
-31 -32 -33 0
-31 32 33 0
32 -378 25 0
-32 378 0
-32 -25 0
33 -34 36 0
33 34 -36 0
-33 34 36 0
-33 -34 -36 0
-34 372 35 0
-34 -372 -35 0
34 -372 35 0
34 372 -35 0
-35 -361 374 0
-35 361 372 0
-35 361 366 0
35 -361 -374 0
35 361 -366 -372 0
-36 378 37 0
-36 -378 -37 0
36 -378 37 0
36 378 -37 0
-37 26 38 0
-37 362 377 0
-37 377 38 0
-37 362 26 0
37 -377 -26 0
37 -362 -38 0
-38 -364 -378 0
-38 372 378 0
-38 364 -372 0
38 -364 -372 378 0
38 364 372 -378 0
-39 -40 -47 0
-39 40 47 0
39 40 -47 0
39 -40 47 0
-40 43 45 0
-40 41 45 0
-40 41 43 0
40 -41 -45 0
40 -41 -43 0
40 -43 -45 0
41 -380 -42 0
-41 380 0
-41 42 0
42 382 -384 0
42 -382 384 0
-42 -382 -384 0
-42 382 384 0
-43 382 44 0
-43 -382 -44 0
43 -382 44 0
43 382 -44 0
-44 382 386 0
-44 385 -386 0
-44 379 386 0
44 -385 -386 0
44 -379 -382 386 0
45 380 -382 46 0
-45 -380 0
-45 382 0
-45 -46 0
46 -379 -386 0
-46 379 0
-46 386 0
47 48 -49 0
47 -48 49 0
-47 -48 -49 0
-47 48 49 0
48 -388 41 0
-48 388 0
-48 -41 0
49 -50 52 0
49 50 -52 0
-49 50 52 0
-49 -50 -52 0
-50 382 51 0
-50 -382 -51 0
50 -382 51 0
50 382 -51 0
-51 382 386 0
-51 -386 389 0
-51 385 386 0
51 -386 -389 0
51 -382 -385 386 0
-52 388 53 0
-52 -388 -53 0
52 -388 53 0
52 388 -53 0
-53 42 54 0
-53 379 380 0
-53 379 54 0
-53 380 42 0
53 -379 -42 0
53 -380 -54 0
-54 -382 -388 0
-54 384 388 0
-54 382 -384 0
54 -382 -384 388 0
54 382 384 -388 0
55 -7 23 0
55 7 -23 0
-55 7 23 0
-55 -7 -23 0
-56 57 58 0
-56 -57 -58 0
56 -57 58 0
56 57 -58 0
57 -40 -47 0
-57 40 0
-57 47 0
-58 -59 -62 0
-58 59 62 0
58 59 -62 0
58 -59 62 0
-59 60 61 0
59 -60 0
59 -61 0
60 -50 -52 0
-60 50 0
-60 52 0
61 -388 41 -49 0
-61 388 0
-61 -41 0
-61 49 0
62 63 -64 0
62 -63 64 0
-62 -63 -64 0
-62 63 64 0
63 -380 388 -390 0
63 -380 -388 390 0
-63 380 0
-63 -388 -390 0
-63 388 390 0
64 -65 67 0
64 65 -67 0
-64 65 67 0
-64 -65 -67 0
-65 382 66 0
-65 -382 -66 0
65 -382 66 0
65 382 -66 0
-66 386 389 0
-66 -386 387 0
-66 382 386 0
66 -386 -387 0
66 -382 386 -389 0
-67 388 68 0
-67 -388 -68 0
67 -388 68 0
67 388 -68 0
-68 42 54 0
-68 379 385 0
-68 385 54 0
-68 379 42 0
68 -385 -42 0
68 -379 -54 0
69 -70 83 0
69 70 -83 0
-69 70 83 0
-69 -70 -83 0
-70 71 72 0
-70 -71 -72 0
70 -71 72 0
70 71 -72 0
71 -8 -15 0
-71 8 0
-71 15 0
-72 -73 -76 0
-72 73 76 0
72 73 -76 0
72 -73 76 0
-73 74 75 0
73 -74 0
73 -75 0
74 -18 -20 0
-74 18 0
-74 20 0
75 -365 9 -17 0
-75 365 0
-75 -9 0
-75 17 0
76 77 -78 0
76 -77 78 0
-76 -77 -78 0
-76 77 78 0
77 365 -375 -376 0
77 -365 -375 376 0
-77 375 0
-77 -365 -376 0
-77 365 376 0
78 -79 81 0
78 79 -81 0
-78 79 81 0
-78 -79 -81 0
-79 373 80 0
-79 -373 -80 0
79 -373 80 0
79 373 -80 0
-80 368 373 0
-80 -368 391 0
-80 363 368 0
80 -368 -391 0
80 -363 368 -373 0
-81 365 82 0
-81 -365 -82 0
81 -365 82 0
81 365 -82 0
-82 10 22 0
-82 367 370 0
-82 370 22 0
-82 367 10 0
82 -370 -10 0
82 -367 -22 0
-83 84 85 0
-83 -84 -85 0
83 -84 85 0
83 84 -85 0
84 -24 -31 0
-84 24 0
-84 31 0
-85 -86 -89 0
-85 86 89 0
85 86 -89 0
85 -86 89 0
-86 87 88 0
86 -87 0
86 -88 0
87 -34 -36 0
-87 34 0
-87 36 0
88 -378 25 -33 0
-88 378 0
-88 -25 0
-88 33 0
89 90 -91 0
89 -90 91 0
-89 -90 -91 0
-89 90 91 0
90 -362 378 -381 0
90 -362 -378 381 0
-90 362 0
-90 -378 -381 0
-90 378 381 0
91 -92 94 0
91 92 -94 0
-91 92 94 0
-91 -92 -94 0
-92 372 93 0
-92 -372 -93 0
92 -372 93 0
92 372 -93 0
-93 361 374 0
-93 360 -361 0
-93 361 372 0
93 -360 -361 0
93 361 -372 -374 0
-94 378 95 0
-94 -378 -95 0
94 -378 95 0
94 378 -95 0
-95 26 38 0
-95 366 377 0
-95 366 38 0
-95 377 26 0
95 -366 -26 0
95 -377 -38 0
-96 97 106 0
-96 106 107 0
-96 97 107 0
96 -97 -107 0
96 -106 -107 0
96 -97 -106 0
-97 98 103 0
-97 98 105 0
97 -98 0
97 -103 -105 0
98 -99 -101 0
-98 99 0
-98 101 0
-99 13 100 0
-99 -13 -100 0
99 -13 100 0
99 13 -100 0
-100 9 11 0
-100 -9 -11 0
100 -9 11 0
100 9 -11 0
-101 29 102 0
-101 -29 -102 0
101 -29 102 0
101 29 -102 0
-102 25 27 0
-102 -25 -27 0
102 -25 27 0
102 25 -27 0
-103 45 104 0
-103 -45 -104 0
103 -45 104 0
103 45 -104 0
-104 41 43 0
-104 -41 -43 0
104 -41 43 0
104 41 -43 0
105 -99 101 0
105 99 -101 0
-105 99 101 0
-105 -99 -101 0
-106 -39 -55 0
-106 39 55 0
106 39 -55 0
106 -39 55 0
-107 108 123 0
-107 123 124 0
-107 108 124 0
107 -123 -124 0
107 -108 -123 0
107 -108 -124 0
-108 109 118 0
-108 109 122 0
108 -109 0
108 -118 -122 0
109 -110 -114 0
-109 110 0
-109 114 0
-110 111 112 0
-110 -111 -112 0
110 -111 112 0
110 111 -112 0
111 368 -373 0
111 -373 375 0
-111 373 0
-111 -368 -375 0
-112 373 113 0
-112 -373 -113 0
112 -373 113 0
112 373 -113 0
-113 368 375 0
-113 367 -368 0
-113 368 373 0
113 -367 -368 0
113 368 -373 -375 0
-114 115 116 0
-114 -115 -116 0
114 -115 116 0
114 115 -116 0
115 362 -372 0
115 361 -372 0
-115 372 0
-115 -361 -362 0
-116 372 117 0
-116 -372 -117 0
116 -372 117 0
116 372 -117 0
-117 -361 377 0
-117 361 372 0
-117 361 362 0
117 -361 -377 0
117 361 -362 -372 0
-118 119 120 0
-118 -119 -120 0
118 -119 120 0
118 119 -120 0
119 380 -382 0
119 -382 386 0
-119 382 0
-119 -380 -386 0
-120 382 121 0
-120 -382 -121 0
120 -382 121 0
120 382 -121 0
-121 380 386 0
-121 379 -386 0
-121 382 386 0
121 -379 -386 0
121 -380 -382 386 0
122 -110 114 0
122 110 -114 0
-122 110 114 0
-122 -110 -114 0
-123 -103 -105 0
-123 103 105 0
123 103 -105 0
123 -103 105 0
124 -125 -127 -128 0
124 -125 -126 -128 0
124 -126 -127 -128 0
-124 125 127 0
-124 126 127 0
-124 128 0
-124 125 126 0
125 -368 -375 0
-125 368 0
-125 375 0
126 -361 -362 0
-126 361 0
-126 362 0
127 -380 -386 0
-127 380 0
-127 386 0
-128 -118 -122 0
-128 118 122 0
128 118 -122 0
128 -118 122 0
129 -130 132 0
129 130 -132 0
-129 130 132 0
-129 -130 -132 0
-130 131 69 0
-130 56 131 0
130 -131 0
130 -56 -69 0
131 -70 -83 0
-131 70 0
-131 83 0
-132 -133 -150 0
-132 133 150 0
132 133 -150 0
132 -133 150 0
-133 -134 -135 0
-133 134 135 0
133 134 -135 0
133 -134 135 0
-134 59 62 0
-134 57 62 0
-134 57 59 0
134 -57 -62 0
134 -57 -59 0
134 -59 -62 0
135 -136 139 0
135 136 -139 0
-135 136 139 0
-135 -136 -139 0
-136 137 138 0
136 -137 0
136 -138 0
137 -65 -67 0
-137 65 0
-137 67 0
138 -63 -64 0
-138 63 0
-138 64 0
-139 140 141 0
-139 -140 -141 0
139 -140 141 0
139 140 -141 0
140 -359 63 0
-140 359 0
-140 -63 0
-141 -142 -145 0
-141 142 145 0
141 142 -145 0
141 -142 145 0
-142 359 143 0
-142 -359 -143 0
142 -359 143 0
142 359 -143 0
-143 379 144 0
-143 -388 -390 144 0
-143 388 390 144 0
143 -144 0
143 -379 388 -390 0
143 -379 -388 390 0
144 359 -380 -388 -390 0
144 -359 -380 388 390 0
-144 388 -390 0
-144 -359 -388 0
-144 380 0
-144 359 390 0
145 -146 148 0
145 146 -148 0
-145 146 148 0
-145 -146 -148 0
-146 382 147 0
-146 -382 -147 0
146 -382 147 0
146 382 -147 0
-147 386 387 0
-147 358 -386 0
-147 382 386 0
147 -358 -386 0
147 -382 386 -387 0
-148 388 149 0
-148 -388 -149 0
148 -388 149 0
148 388 -149 0
-149 42 54 0
-149 385 389 0
-149 389 54 0
-149 385 42 0
149 -389 -42 0
149 -385 -54 0
150 -151 168 0
150 151 -168 0
-150 151 168 0
-150 -151 -168 0
-151 -152 -153 0
-151 152 153 0
151 152 -153 0
151 -152 153 0
-152 73 76 0
-152 71 76 0
-152 71 73 0
152 -71 -76 0
152 -71 -73 0
152 -73 -76 0
153 -154 157 0
153 154 -157 0
-153 154 157 0
-153 -154 -157 0
-154 155 156 0
154 -155 0
154 -156 0
155 -79 -81 0
-155 79 0
-155 81 0
156 -77 -78 0
-156 77 0
-156 78 0
-157 158 159 0
-157 -158 -159 0
157 -158 159 0
157 158 -159 0
158 -357 77 0
-158 357 0
-158 -77 0
-159 -160 -163 0
-159 160 163 0
159 160 -163 0
159 -160 163 0
-160 357 161 0
-160 -357 -161 0
160 -357 161 0
160 357 -161 0
-161 367 162 0
-161 -365 -376 162 0
-161 365 376 162 0
161 -162 0
161 365 -367 -376 0
161 -365 -367 376 0
162 -357 365 -375 376 0
162 357 -365 -375 -376 0
-162 365 -376 0
-162 357 376 0
-162 375 0
-162 -357 -365 0
163 -164 166 0
163 164 -166 0
-163 164 166 0
-163 -164 -166 0
-164 373 165 0
-164 -373 -165 0
164 -373 165 0
164 373 -165 0
-165 368 391 0
-165 356 -368 0
-165 368 373 0
165 -356 -368 0
165 368 -373 -391 0
-166 365 167 0
-166 -365 -167 0
166 -365 167 0
166 365 -167 0
-167 10 22 0
-167 363 370 0
-167 363 22 0
-167 370 10 0
167 -363 -10 0
167 -370 -22 0
-168 -169 -170 0
-168 169 170 0
168 169 -170 0
168 -169 170 0
-169 86 89 0
-169 84 89 0
-169 84 86 0
169 -84 -89 0
169 -84 -86 0
169 -86 -89 0
170 -171 174 0
170 171 -174 0
-170 171 174 0
-170 -171 -174 0
-171 172 173 0
171 -172 0
171 -173 0
172 -92 -94 0
-172 92 0
-172 94 0
173 -90 -91 0
-173 90 0
-173 91 0
-174 175 176 0
-174 -175 -176 0
174 -175 176 0
174 175 -176 0
175 -383 90 0
-175 383 0
-175 -90 0
-176 -177 -180 0
-176 177 180 0
176 177 -180 0
176 -177 180 0
-177 383 178 0
-177 -383 -178 0
177 -383 178 0
177 383 -178 0
-178 377 179 0
-178 -378 -381 179 0
-178 378 381 179 0
178 -179 0
178 -377 378 -381 0
178 -377 -378 381 0
179 -362 378 381 -383 0
179 -362 -378 -381 383 0
-179 378 383 0
-179 -378 381 0
-179 362 0
-179 -381 -383 0
180 -181 183 0
180 181 -183 0
-180 181 183 0
-180 -181 -183 0
-181 372 182 0
-181 -372 -182 0
181 -372 182 0
181 372 -182 0
-182 361 372 0
-182 -361 369 0
-182 360 361 0
182 -361 -369 0
182 -360 361 -372 0
-183 378 184 0
-183 -378 -184 0
183 -378 184 0
183 378 -184 0
-184 26 38 0
-184 366 374 0
-184 374 38 0
-184 366 26 0
184 -374 -26 0
184 -366 -38 0
-185 -186 -294 0
-185 186 294 0
185 186 -294 0
185 -186 294 0
-186 269 273 0
-186 -187 -241 273 0
-186 -187 -241 269 0
-186 187 241 269 0
-186 187 241 273 0
186 -269 -273 0
186 -187 241 -273 0
186 187 -241 -273 0
186 187 -241 -269 0
186 -187 241 -269 0
-187 188 214 0
-187 -188 -214 0
187 -188 214 0
187 188 -214 0
-188 189 204 0
-188 -189 -204 0
188 -189 204 0
188 189 -204 0
189 -190 -201 0
-189 190 0
-189 201 0
-190 191 198 0
-190 -191 -198 0
190 -191 198 0
190 191 -198 0
191 365 -194 0
191 -365 194 196 0
191 365 -192 0
-191 -365 -194 0
-191 365 192 194 0
-191 -365 -196 0
192 -375 -193 0
-192 375 0
-192 193 0
193 -371 -373 0
-193 371 0
-193 373 0
194 -367 -195 0
-194 367 0
-194 195 0
-195 -371 -373 0
-195 371 373 0
195 371 -373 0
195 -371 373 0
196 -375 197 0
-196 375 0
-196 -197 0
-197 371 373 0
197 -371 0
197 -373 0
-198 199 200 0
-198 -199 -200 0
198 -199 200 0
198 199 -200 0
199 -365 195 0
199 -365 375 0
-199 365 0
-199 -375 -195 0
-200 368 373 0
-200 -363 -368 -373 0
-200 368 -370 0
-200 363 373 0
200 368 370 -373 0
200 363 -368 -373 0
200 -363 -368 373 0
201 -202 -203 0
-201 202 0
-201 203 0
-202 368 373 0
-202 -368 -370 -373 0
-202 370 373 0
-202 -367 368 0
202 367 368 -373 0
202 -368 370 -373 0
202 -368 -370 373 0
-203 375 -14 0
-203 -375 195 0
-203 373 375 0
203 -375 -195 0
203 -373 375 14 0
-204 205 213 0
-204 -205 -213 0
204 -205 213 0
204 205 -213 0
-205 -206 -210 0
-205 206 210 0
205 206 -210 0
205 -206 210 0
206 365 -208 0
206 -365 208 209 0
206 365 -207 0
-206 -365 -208 0
-206 365 207 208 0
-206 -365 -209 0
207 -367 -193 0
-207 367 0
-207 193 0
208 -370 -195 0
-208 370 0
-208 195 0
209 -367 197 0
-209 367 0
-209 -197 0
210 -211 212 0
210 211 -212 0
-210 211 212 0
-210 -211 -212 0
211 365 -375 -376 0
211 -365 -375 376 0
-211 375 0
-211 -365 -376 0
-211 365 376 0
-212 368 373 0
-212 -363 368 0
-212 373 391 0
-212 -368 -373 -391 0
212 -368 373 -391 0
212 -368 -373 391 0
212 363 368 -373 0
-213 199 200 0
-213 191 199 0
-213 191 200 0
213 -191 -199 0
213 -199 -200 0
213 -191 -200 0
-214 215 230 0
-214 -215 -230 0
214 -215 230 0
214 215 -230 0
215 -216 -227 0
-215 216 0
-215 227 0
-216 217 224 0
-216 -217 -224 0
216 -217 224 0
216 217 -224 0
217 378 -222 0
217 -378 218 220 0
217 378 -218 0
-217 -378 -218 0
-217 -378 -220 0
-217 378 218 222 0
218 -377 -219 0
-218 377 0
-218 219 0
-219 -364 -372 0
-219 364 372 0
219 364 -372 0
219 -364 372 0
220 -362 221 0
-220 362 0
-220 -221 0
-221 364 372 0
221 -364 0
221 -372 0
222 -362 -223 0
-222 362 0
-222 223 0
223 -364 -372 0
-223 364 0
-223 372 0
-224 -225 -226 0
-224 225 226 0
224 225 -226 0
224 -225 226 0
225 -361 372 -374 0
225 -361 -372 374 0
225 361 366 -372 0
-225 361 -366 0
-225 361 372 0
-225 372 374 0
-225 -361 -372 -374 0
226 362 -378 0
226 -378 219 0
-226 378 0
-226 -362 -219 0
227 -228 -229 0
-227 228 0
-227 229 0
-228 361 372 0
-228 366 372 0
-228 361 -377 0
-228 -361 -366 -372 0
228 -361 366 -372 0
228 -361 -366 372 0
228 361 -372 377 0
-229 -362 219 0
-229 362 372 0
-229 362 -30 0
229 -362 -219 0
229 362 -372 30 0
-230 -231 -240 0
-230 231 240 0
230 231 -240 0
230 -231 240 0
231 232 -236 0
231 -232 236 0
-231 -232 -236 0
-231 232 236 0
232 378 -235 0
232 -378 233 234 0
232 378 -233 0
-232 -378 -233 0
-232 -378 -234 0
-232 378 233 235 0
233 -366 -219 0
-233 366 0
-233 219 0
234 -377 221 0
-234 377 0
-234 -221 0
235 -377 -223 0
-235 377 0
-235 223 0
236 237 -239 0
236 -237 239 0
-236 -237 -239 0
-236 237 239 0
237 -362 -238 0
-237 362 0
-237 238 0
-238 -378 -381 0
-238 378 381 0
238 378 -381 0
238 -378 381 0
239 360 -361 -372 0
239 361 -372 374 0
239 -360 -361 372 0
-239 360 372 0
-239 361 372 0
-239 361 -374 0
-239 -360 -361 -372 0
240 -217 -225 0
240 -225 -226 0
240 -217 -226 0
-240 217 226 0
-240 225 226 0
-240 217 225 0
241 -242 259 0
241 242 -259 0
-241 242 259 0
-241 -242 -259 0
242 -243 -255 0
-242 243 0
-242 255 0
243 244 -249 0
243 -244 249 0
-243 -244 -249 0
-243 244 249 0
-244 245 248 0
-244 -245 -248 0
244 -245 248 0
244 245 -248 0
245 -388 246 0
-245 388 0
-245 -246 0
246 -380 -247 0
-246 380 0
-246 247 0
-247 -382 -384 0
-247 382 384 0
247 382 -384 0
247 -382 384 0
-248 -385 386 0
-248 382 386 0
-248 382 389 0
-248 -382 -386 -389 0
248 -382 -386 389 0
248 -382 385 386 0
248 382 -386 -389 0
249 388 -253 0
249 -388 250 251 0
249 388 -250 0
-249 -388 -250 0
-249 -388 -251 0
-249 388 250 253 0
250 -379 -247 0
-250 379 0
-250 247 0
251 -380 252 0
-251 380 0
-251 -252 0
-252 382 384 0
252 -382 0
252 -384 0
253 -380 -254 0
-253 380 0
-253 254 0
254 -382 -384 0
-254 382 0
-254 384 0
-255 246 -256 0
-255 257 258 0
-255 -256 257 0
-255 246 258 0
255 -246 -257 0
255 256 -258 0
-256 379 386 0
-256 385 -386 0
256 -385 -386 0
256 -379 386 0
-257 382 386 0
-257 -382 -385 -386 0
-257 -379 386 0
-257 382 385 0
257 379 -382 386 0
257 -382 385 -386 0
257 382 -385 -386 0
258 380 -382 46 0
-258 -380 0
-258 382 0
-258 -46 0
-259 -260 -268 0
-259 260 268 0
259 260 -268 0
259 -260 268 0
260 261 -265 0
260 -261 265 0
-260 -261 -265 0
-260 261 265 0
261 388 -264 0
261 -388 262 263 0
261 388 -262 0
-261 -388 -262 0
-261 -388 -263 0
-261 388 262 264 0
262 -385 -247 0
-262 385 0
-262 247 0
263 -379 252 0
-263 379 0
-263 -252 0
264 -379 -254 0
-264 379 0
-264 254 0
265 -266 267 0
265 266 -267 0
-265 266 267 0
-265 -266 -267 0
266 -380 388 -390 0
266 -380 -388 390 0
-266 380 0
-266 -388 -390 0
-266 388 390 0
-267 382 387 0
-267 382 386 0
-267 386 -389 0
-267 -382 -386 -387 0
267 382 -386 -387 0
267 -382 386 389 0
267 -382 -386 387 0
268 -245 -249 0
268 -245 -248 0
268 -248 -249 0
-268 248 249 0
-268 245 249 0
-268 245 248 0
269 -270 -272 0
269 -271 -272 0
269 -270 -271 0
-269 270 271 0
-269 271 272 0
-269 270 272 0
-270 -216 -227 0
-270 216 227 0
270 216 -227 0
270 -216 227 0
-271 -190 -201 0
-271 190 201 0
271 190 -201 0
271 -190 201 0
-272 243 255 0
-272 -243 -255 0
272 -243 255 0
272 243 -255 0
-273 274 291 0
-273 272 274 293 0
-273 272 291 293 0
-273 -272 274 -293 0
-273 -272 291 -293 0
273 -274 -291 0
273 272 -274 -293 0
273 272 -291 -293 0
273 -272 -274 293 0
273 -272 -291 293 0
274 -275 -280 0
274 -280 -289 0
274 -275 -290 0
274 -275 -289 0
-274 275 289 0
-274 275 280 0
-274 280 289 290 0
-275 -276 -277 0
-275 276 277 0
275 276 -277 0
275 -276 277 0
276 -257 255 0
276 -258 255 0
276 -246 255 0
-276 -255 0
-276 246 257 258 0
277 -278 279 0
277 278 -279 0
-277 278 279 0
-277 -278 -279 0
278 -202 203 0
278 202 -203 0
-278 202 203 0
-278 -202 -203 0
-279 228 229 0
-279 -228 -229 0
279 -228 229 0
279 228 -229 0
280 -125 -127 -281 0
280 -125 -126 -281 0
280 -126 -127 -281 0
-280 125 127 0
-280 126 127 0
-280 281 0
-280 125 126 0
-281 282 284 0
-281 -282 -284 0
281 -282 284 0
281 282 -284 0
282 46 -283 0
282 -46 283 0
-282 -46 -283 0
-282 46 283 0
283 -380 -382 0
-283 380 0
-283 382 0
-284 -285 -287 0
-284 285 287 0
284 285 -287 0
284 -285 287 0
285 30 -286 0
285 -30 286 0
-285 -30 -286 0
-285 30 286 0
286 -362 -372 0
-286 362 0
-286 372 0
287 14 -288 0
287 -14 288 0
-287 -14 -288 0
-287 14 288 0
288 -373 -375 0
-288 373 0
-288 375 0
289 -285 -287 0
-289 285 0
-289 287 0
290 -282 -284 0
-290 282 0
-290 284 0
-291 292 277 0
-291 276 292 0
291 -292 0
291 -276 -277 0
292 -278 -279 0
-292 278 0
-292 279 0
293 -270 271 0
293 270 -271 0
-293 270 271 0
-293 -270 -271 0
294 -295 355 0
294 295 -355 0
-294 295 355 0
-294 -295 -355 0
295 -296 316 0
295 296 -316 0
-295 296 316 0
-295 -296 -316 0
-296 -297 -315 0
-296 297 315 0
296 297 -315 0
296 -297 315 0
-297 298 314 0
-297 -298 -314 0
297 -298 314 0
297 298 -314 0
298 -299 305 0
298 299 -305 0
-298 299 305 0
-298 -299 -305 0
-299 300 301 0
-299 -300 -301 0
299 -300 301 0
299 300 -301 0
-300 382 386 0
-300 358 382 0
-300 386 -387 0
-300 -358 -382 -386 0
300 358 -382 -386 0
300 -358 382 -386 0
300 -382 386 387 0
-301 302 304 0
-301 -389 -247 302 0
301 -302 0
301 389 -304 0
301 247 -304 0
-302 389 303 0
-302 -388 303 0
-302 247 303 0
302 -303 0
302 388 -389 -247 0
303 -385 388 -254 0
-303 385 0
-303 -388 0
-303 254 0
304 385 -388 0
304 -388 -252 0
-304 388 0
-304 -385 252 0
-305 306 307 0
-305 -306 -307 0
305 -306 307 0
305 306 -307 0
306 -359 266 0
-306 359 0
-306 -266 0
-307 309 311 0
-307 -379 -308 311 0
307 -311 0
307 308 -309 0
307 379 -309 0
-308 -388 -390 0
-308 388 390 0
308 388 -390 0
308 -388 390 0
309 -359 -310 0
309 -359 380 0
-309 359 0
-309 -380 310 0
-310 388 390 0
310 -388 0
310 -390 0
311 -379 312 -313 0
311 -380 -312 -313 0
-311 313 0
-311 379 312 0
-311 380 -312 0
312 -388 -390 0
-312 388 0
-312 390 0
313 359 -310 0
-313 -359 0
-313 310 0
-314 266 267 0
-314 261 266 0
-314 261 267 0
314 -261 -266 0
314 -266 -267 0
314 -261 -267 0
315 -242 -260 0
315 -260 -268 0
315 -242 -268 0
-315 242 268 0
-315 260 268 0
-315 242 260 0
-316 -317 -336 0
-316 317 336 0
316 317 -336 0
316 -317 336 0
317 -318 319 0
317 318 -319 0
-317 318 319 0
-317 -318 -319 0
318 -205 -213 0
318 -189 -205 0
318 -189 -213 0
-318 189 205 0
-318 205 213 0
-318 189 213 0
-319 320 321 0
-319 -320 -321 0
319 -320 321 0
319 320 -321 0
-320 211 212 0
-320 206 211 0
-320 206 212 0
320 -206 -211 0
320 -211 -212 0
320 -206 -212 0
-321 322 330 0
-321 -322 -330 0
321 -322 330 0
321 322 -330 0
-322 323 324 0
-322 -323 -324 0
322 -323 324 0
322 323 -324 0
323 -357 211 0
-323 357 0
-323 -211 0
-324 326 327 0
-324 367 325 327 0
324 -327 0
324 -325 -326 0
324 -367 -326 0
325 -365 -376 0
-325 365 0
-325 376 0
326 357 365 -376 0
326 357 -365 -375 0
326 357 -365 376 0
-326 -357 0
-326 365 376 0
-326 -365 375 -376 0
327 367 -328 0
327 365 376 -328 0
327 -365 -376 -328 0
-327 328 0
-327 365 -367 -376 0
-327 -365 -367 376 0
328 -357 -329 0
328 -357 375 0
-328 357 0
-328 -375 329 0
-329 365 376 0
329 -365 0
329 -376 0
-330 331 332 0
-330 -331 -332 0
330 -331 332 0
330 331 -332 0
-331 356 373 0
-331 368 373 0
-331 368 -391 0
-331 -356 -368 -373 0
331 356 -368 -373 0
331 368 -373 391 0
331 -356 -368 373 0
-332 333 335 0
-332 -363 -195 333 0
332 -333 0
332 363 -335 0
332 195 -335 0
-333 370 334 0
-333 -365 334 0
-333 193 334 0
333 -334 0
333 365 -370 -193 0
334 -363 365 -195 0
-334 363 0
-334 195 0
-334 -365 0
335 -365 -197 0
335 -365 370 0
-335 365 0
-335 -370 197 0
336 337 -354 0
336 -337 354 0
-336 -337 -354 0
-336 337 354 0
-337 -338 -339 0
-337 338 339 0
337 338 -339 0
337 -338 339 0
-338 232 238 0
-338 362 239 0
-338 232 239 0
-338 362 232 0
-338 238 239 0
338 -232 -239 0
338 -362 -238 -239 0
338 -362 -232 -238 0
339 -340 348 0
339 340 -348 0
-339 340 348 0
-339 -340 -348 0
-340 341 342 0
-340 -341 -342 0
340 -341 342 0
340 341 -342 0
341 -383 237 0
-341 383 0
-341 -237 0
-342 343 347 0
-342 -377 -238 343 0
342 -343 0
342 377 -347 0
342 238 -347 0
343 -377 344 -345 0
343 -362 -344 -345 0
-343 345 0
-343 377 344 0
-343 362 -344 0
344 -378 -381 0
-344 378 0
-344 381 0
345 383 -346 0
-345 -383 0
-345 346 0
-346 378 381 0
346 -378 0
346 -381 0
347 362 -383 0
347 -383 -346 0
-347 383 0
-347 -362 346 0
-348 349 350 0
-348 -349 -350 0
348 -349 350 0
348 349 -350 0
-349 361 372 0
-349 -361 -369 -372 0
-349 369 372 0
-349 -360 361 0
349 360 361 -372 0
349 -361 369 -372 0
349 -361 -369 372 0
-350 351 353 0
-350 -374 -219 351 0
350 -351 0
350 374 -353 0
350 219 -353 0
-351 223 352 0
-351 -378 352 0
-351 366 352 0
351 -352 0
351 -366 378 -223 0
352 -374 378 -219 0
-352 374 0
-352 219 0
-352 -378 0
353 366 -378 0
353 -378 -221 0
-353 378 0
-353 -366 221 0
354 -215 -231 0
354 -231 -240 0
354 -215 -240 0
-354 215 240 0
-354 231 240 0
-354 215 231 0
-355 188 214 0
-355 214 241 0
-355 188 241 0
355 -214 -241 0
355 -188 -214 0
355 -188 -241 0
-392 0
2 0

